Cost: 346
0-34-46-8-19-14-35-7-26-0
0-4-29-15-20-37-21-30-2-0
0-51-3-24-49-23-43-22-1-33-6-0
0-17-40-32-39-10-12-0
Cost: 346
0-12-10-39-9-32-40-0
0-17-3-24-49-23-43-22-1-33-6-0
0-46-34-52-13-19-35-7-26-0
0-4-29-15-20-37-21-30-2-0
Cost: 346
0-34-46-8-19-14-35-7-26-0
0-4-29-15-20-37-21-30-2-0
0-51-3-24-49-23-43-22-1-33-6-0
0-17-40-32-39-10-12-0
Cost: 346
0-17-40-32-39-10-12-26-0
0-4-29-15-20-37-21-30-2-0
0-34-46-8-19-14-35-7-0
0-51-3-24-49-23-43-22-1-33-6-0
Cost: 346
0-7-35-19-13-27-52-34-46-0
0-12-10-39-9-32-40-0
0-17-3-24-49-23-43-22-1-33-6-0
0-4-29-15-20-37-21-30-2-0
Cost: 346
0-51-3-24-49-23-43-22-1-33-6-0
0-2-30-21-37-20-15-29-4-0
0-26-12-10-39-32-40-17-0
0-7-35-14-19-8-46-34-0
Cost: 346
0-4-29-15-20-37-21-30-2-0
0-12-10-39-32-40-17-0
0-51-3-24-49-23-43-22-1-33-6-0
0-26-7-35-14-19-8-46-34-0
Cost: 346
0-4-29-15-20-37-21-30-2-0
0-12-10-39-32-40-17-0
0-51-3-24-49-23-43-22-1-33-6-0
0-26-7-35-14-19-8-46-34-0
Cost: 346
0-4-29-15-20-37-21-30-2-0
0-12-10-39-32-40-17-0
0-51-3-24-49-23-43-22-1-33-6-0
0-26-7-35-14-19-8-46-34-0
Cost: 346
0-4-29-15-20-37-21-30-2-0
0-12-10-39-32-40-17-0
0-51-3-24-49-23-43-22-1-33-6-0
0-26-7-35-14-19-8-46-34-0
Cost: 346
0-17-3-24-49-23-43-22-1-33-6-0
0-2-30-21-37-20-15-29-4-0
0-26-7-35-19-13-52-46-34-0
0-12-10-39-9-32-40-0
Cost: 346
0-26-12-10-39-32-40-17-0
0-7-35-14-19-8-46-34-0
0-2-30-21-37-20-15-29-4-0
0-6-33-1-22-43-23-49-24-3-51-0
Cost: 346
0-40-32-9-39-10-12-0
0-2-30-21-37-20-15-29-4-0
0-17-3-24-49-23-43-22-1-33-6-0
0-26-7-35-19-13-52-34-46-0
Cost: 346
0-51-3-24-49-23-43-22-1-33-6-0
0-2-30-21-37-20-15-29-4-0
0-26-12-10-39-32-40-17-0
0-7-35-14-19-8-46-34-0
Cost: 346
0-40-32-9-39-10-12-0
0-2-30-21-37-20-15-29-4-0
0-17-3-24-49-23-43-22-1-33-6-0
0-26-7-35-19-13-52-34-46-0
Cost: 346
0-40-32-9-39-10-12-0
0-2-30-21-37-20-15-29-4-0
0-17-3-24-49-23-43-22-1-33-6-0
0-26-7-35-19-13-52-34-46-0
Cost: 346
0-34-46-8-19-14-35-7-0
0-2-30-21-37-20-15-29-4-0
0-51-3-24-49-23-43-22-1-33-6-0
0-17-40-32-39-10-12-26-0
Cost: 346
0-46-34-52-27-13-19-35-7-0
0-6-33-1-22-43-23-49-24-3-17-0
0-12-10-39-9-32-40-0
0-2-30-21-37-20-15-29-4-0
Cost: 346
0-12-10-39-9-32-40-0
0-34-46-52-27-13-19-35-7-0
0-17-3-24-49-23-43-22-1-33-6-0
0-2-30-21-37-20-15-29-4-0
Cost: 346
0-12-10-39-9-32-40-0
0-34-46-52-27-13-19-35-7-0
0-17-3-24-49-23-43-22-1-33-6-0
0-2-30-21-37-20-15-29-4-0
Cost: 346
0-17-40-32-39-10-12-26-0
0-34-46-8-19-14-35-7-0
0-2-30-21-37-20-15-29-4-0
0-51-3-24-49-23-43-22-1-33-6-0
Cost: 346
0-17-40-32-39-10-12-26-0
0-34-46-8-19-14-35-7-0
0-2-30-21-37-20-15-29-4-0
0-51-3-24-49-23-43-22-1-33-6-0
Cost: 346
0-17-40-32-39-10-12-26-0
0-2-30-21-37-20-15-29-4-0
0-7-35-14-19-8-46-34-0
0-6-33-1-22-43-23-49-24-3-51-0
Cost: 346
0-17-40-32-39-10-12-26-0
0-34-46-8-19-14-35-7-0
0-2-30-21-37-20-15-29-4-0
0-51-3-24-49-23-43-22-1-33-6-0
Cost: 346
0-46-34-52-27-13-19-35-7-0
0-6-33-1-22-43-23-49-24-3-17-0
0-12-10-39-9-32-40-0
0-2-30-21-37-20-15-29-4-0
Cost: 346
0-12-10-39-9-32-40-0
0-34-46-52-27-13-19-35-7-0
0-17-3-24-49-23-43-22-1-33-6-0
0-2-30-21-37-20-15-29-4-0
Cost: 346
0-51-3-24-49-23-43-22-1-33-6-0
0-7-35-14-19-8-46-34-0
0-4-29-15-20-37-21-30-2-0
0-17-40-32-39-10-12-26-0
Cost: 346
0-40-32-9-39-10-12-0
0-34-46-52-27-13-19-35-7-0
0-2-30-21-37-20-15-29-4-0
0-6-33-1-22-43-23-49-24-3-17-0
Cost: 346
0-2-30-21-37-20-15-29-4-0
0-40-32-9-39-10-12-0
0-34-46-52-13-19-35-7-26-0
0-6-33-1-22-43-23-49-24-3-17-0
Cost: 346
0-17-40-32-39-10-12-26-0
0-4-29-15-20-37-21-30-2-0
0-51-3-24-49-23-43-22-1-33-6-0
0-7-35-14-19-8-46-34-0
Cost: 346
0-34-46-8-19-14-35-7-26-0
0-51-3-24-49-23-43-22-1-33-6-0
0-4-29-15-20-37-21-30-2-0
0-17-40-32-39-10-12-0
